120
150
39
24
83
42
69
39
20
31
100
42
32
39
78
88
90
22
38
39
85
87
20
43
56
63
31
58
90
25
56
69
24
39
24
63
27
54
69
45
54
51
31
88
32
46
27
45
25
42
83
76
46
27
31
36
88
31
75
48
27
51
63
36
31
88
31
41
78
70
78
63
87
36
31
100
46
31
75
63
87
85
54
31
52
67
63
52
35
69
35
53
35
62
38
31
81
63
87
83
83
83
42
58
90
45
81
24
55
95
83
31
90
42
56
90
83
74
35
41
46
100
